87 85 84 83 86 84 85 85 84 84 84 83 86 87 85 87 83 86 85 86 
86 87 87 85 85 85 86 85 85 86 86 86 86 85 85 85 86 85 85 86 
92 90 92 92 91 92 91 91 90 90 91 91 90 92 91 91 91 90 92 90 
83 86 87 83 89 87 84 83 83 85 89 89 86 87 85 86 84 89 84 84 
84 89 90 80 83 89 83 80 81 85 90 80 90 87 83 90 81 89 80 90 
88 87 89 88 88 89 89 87 88 87 88 89 89 88 89 87 88 88 88 88 
87 88 85 87 87 88 88 84 88 84 87 88 84 86 87 85 87 86 87 88 
89 90 89 91 91 91 90 90 89 89 91 90 90 89 91 89 91 89 89 91 
84 79 84 80 80 89 80 87 89 86 83 89 88 86 79 86 85 79 80 85 
80 81 84 82 85 82 85 84 80 81 84 86 85 83 86 86 83 82 86 83 
84 82 82 83 83 82 84 84 82 84 84 82 84 82 84 83 82 82 84 84 
80 84 81 88 82 81 87 89 86 86 85 86 80 80 79 83 81 87 85 88 
88 89 89 91 88 87 87 91 89 90 87 88 87 91 87 87 87 87 89 91 
92 92 93 94 94 91 90 94 90 93 93 94 94 92 93 92 94 93 93 93 
85 84 83 84 85 83 83 85 83 85 84 83 83 85 84 85 84 84 84 83 
90 91 88 93 92 90 92 90 88 92 89 90 91 87 87 92 90 89 88 91 
83 83 83 83 83 85 85 85 83 84 83 85 85 83 85 83 85 85 83 85 
88 88 88 89 89 87 88 89 87 89 88 88 88 88 87 88 89 88 89 89 
92 91 89 88 92 89 92 95 93 95 93 92 89 94 92 89 91 89 88 92 
96 89 89 90 88 92 90 94 95 94 88 93 89 88 92 88 93 89 88 89 
88 87 89 83 79 83 85 87 85 81 82 88 81 83 87 86 89 84 81 89 
84 82 81 85 83 85 83 81 84 86 85 84 84 85 87 84 82 83 81 83 
91 93 89 92 94 89 88 92 86 94 90 86 92 92 86 92 94 94 93 91 
86 88 90 89 87 84 90 91 91 86 87 88 89 87 88 84 86 84 86 88 
88 81 85 89 82 85 86 87 85 86 84 87 79 89 87 88 87 79 81 85 
83 84 86 83 82 84 83 82 86 84 85 85 85 85 85 83 83 82 85 82 
85 89 85 87 86 82 86 88 83 89 86 82 84 85 82 85 82 88 81 89 
93 88 91 90 89 86 86 87 90 96 93 94 89 93 87 92 92 90 93 96 
97 91 89 97 91 90 94 96 97 96 93 88 97 97 92 93 94 93 88 88 
91 90 91 87 89 87 89 88 88 91 91 91 87 91 89 88 91 89 90 90 
92 92 92 93 92 92 93 92 94 92 94 94 92 93 94 94 93 93 93 94 
88 88 83 91 91 84 88 86 90 84 85 86 86 83 86 83 83 88 88 84 
95 96 90 96 95 91 92 95 94 94 91 95 94 93 93 93 94 92 90 94 
87 89 88 89 89 89 88 89 89 88 89 89 88 87 88 89 88 87 88 88 
87 89 92 90 93 89 91 90 88 90 88 86 87 93 91 91 87 94 93 89 
93 91 92 87 92 92 87 93 94 86 87 87 91 91 94 86 90 90 92 92 
87 87 95 94 87 85 86 89 92 88 95 87 87 86 90 91 93 94 87 94 
88 92 88 91 88 91 94 89 94 94 90 92 93 92 90 89 90 89 91 90 
91 93 92 93 92 93 91 89 89 89 89 90 91 92 91 93 91 92 90 92 
89 92 92 89 86 86 91 87 93 94 89 93 86 88 89 86 86 94 94 87 
90 88 88 90 90 87 86 84 90 88 87 85 88 89 84 87 88 88 89 84 
86 85 89 87 88 90 85 87 88 91 85 88 85 91 89 90 89 90 88 89 
86 84 85 85 85 86 85 84 85 85 84 85 84 85 84 86 84 84 84 84 
90 91 82 91 84 88 91 85 83 87 84 82 82 89 91 90 89 89 88 83 
89 86 88 87 87 88 92 90 91 86 88 89 92 89 93 94 87 85 85 89 
85 87 89 86 90 88 84 84 85 84 90 85 84 85 88 84 86 87 90 90 
92 93 89 92 93 93 89 90 93 92 92 93 90 93 91 89 92 93 91 93 
93 92 92 93 94 91 94 94 92 90 91 92 90 90 93 92 93 90 91 90 
91 85 88 91 92 85 87 85 84 91 90 85 84 89 87 90 92 87 88 91 
91 92 95 94 95 95 93 94 91 91 91 91 91 91 93 95 91 95 93 93 